# Objective value = 96
WA1n 0
WA1p 0
WA2n 1
WA2p 0
WB1n 0
WB1p 0
WB2n 0
WB2p 1
WC1n 0
WC1p 1
WD1n 0
WD1p 1
WE1n 0
WE1p 2
WE2n 0
WE2p 1
WF1n 0
WF1p 3
WF2n 0
WF2p 1
WG1n 6
WG1p 0
WH1n 0
WH1p 9
WH2n 0
WH2p 1
WI1n 0
WI1p 9
WI2n 0
WI2p 1
WJ1n 0
WJ1p 25
WT1n 0
WT1p 28
5 7
a 0
b 0
c 0
d 1
e 1
f 1
g 1
h 1
i 1
j 1
k 0
l 1
m 1
n 1
o 1
p 1
q 1
